 %NProcShared=56
 %mem=64GB
 #P GFInput IOP(6/7=3) 5D
 Gen TPSSh Nosym scf(maxcycle=500)
 
 DFT_6D
 
 +1, 1
 Fe 	0.0		 0.0		0.0
 H 	 0.996292908516088	1.2820849950736215	0.0
 H 	 1.4861807219207144	 0.581403851120372	0.0
 H         1.643580             -0.3514190                0.0000000E+00
 H 	-1.2797790665095365	-2.620657920322011	1.0664087784621854
 H 	-2.768416240838588	-1.527111079009803	0.0
 H 	-1.2797790665095365	-2.620657920322011	-1.0664087784621854
 H 	-0.5175962886994335	0.6405308818173794	3.0904580087596476
 H 	0.08994225990261373	-1.384068462242426	2.8107581920712565
 H 	1.528737951421494	0.192460529568697	2.694330638467
 H 	-2.9111353767303982	1.2164807772857158	0.0
 H 	-1.6147440955681684	2.5206850612186917	-1.0617140996494856
 H 	-1.6147440955681684	2.5206850612186917	1.0617140996494856
 H 	1.528737951421494	0.192460529568697	-2.694330638467
 H 	0.08994225990261373	-1.384068462242426	-2.8107581920712565
 H 	-0.5175962886994335	0.6405308818173794	-3.0904580087596476
 P 	0.25447691775962866	-0.13007503855615057	-2.1969981742522284
 P 	0.25447691775962866	-0.13007503855615057	2.1969981742522284
 P 	-1.5542045006274163	1.597393919014446	0.0
 P 	-1.3692629015444848	-1.708066275716068	0.0
  
 Fe P H 0
 def2TZVPP
 ****
  
  
 
